NAME : berlin52-R-3-0-c.12483.tour
COMMENT : Length = 12483
COMMENT : Found by LKH-3 [Keld Helsgaun] Tue Jul 30 13:14:23 2024
TYPE : TOUR
DIMENSION : 52
TOUR_SECTION
1
44
32
18
31
42
29
47
13
27
51
25
4
6
48
15
43
10
9
41
17
7
2
21
22
20
16
46
34
36
37
38
11
52
14
26
28
12
33
8
19
45
3
23
30
50
24
5
40
39
35
49
-1
EOF
